k = 44;
b = 22;
AtomicConstraints =  [|
1, 3|
	1, 4|
	1, 14|
	1, 38|
	1, 37|
	1, 40|
	1, 39|
	1, 42|
	1, 43|
	1, 41|
	2, 3|
	2, 4|
	2, 14|
	2, 38|
	2, 37|
	2, 40|
	2, 39|
	2, 42|
	2, 43|
	2, 41|
	3, 37|
	3, 40|
	3, 39|
	3, 42|
	3, 43|
	3, 41|
	4, 40|
	4, 39|
	4, 42|
	4, 43|
	4, 41|
	5, 1|
	5, 2|
	5, 3|
	5, 4|
	5, 14|
	5, 38|
	5, 37|
	5, 40|
	5, 39|
	5, 42|
	5, 43|
	5, 41|
	6, 1|
	6, 2|
	6, 3|
	6, 4|
	6, 14|
	6, 38|
	6, 37|
	6, 40|
	6, 39|
	6, 42|
	6, 43|
	6, 41|
	7, 1|
	7, 2|
	7, 3|
	7, 4|
	7, 14|
	7, 38|
	7, 37|
	7, 40|
	7, 39|
	7, 42|
	7, 43|
	7, 41|
	8, 1|
	8, 2|
	8, 3|
	8, 4|
	8, 14|
	8, 38|
	8, 37|
	8, 40|
	8, 39|
	8, 42|
	8, 43|
	8, 41|
	9, 38|
	9, 37|
	10, 38|
	12, 14|
	12, 38|
	12, 37|
	12, 40|
	12, 39|
	13, 14|
	13, 38|
	13, 37|
	13, 40|
	13, 39|
	14, 38|
	14, 37|
	14, 40|
	14, 39|
	28, 36|
	28, 33|
	28, 15|
	28, 24|
	28, 32|
	28, 16|
	28, 35|
	28, 31|
	28, 17|
	28, 34|
	28, 18|
	23, 36|
	23, 33|
	23, 15|
	23, 32|
	23, 16|
	36, 33|
	36, 15|
	36, 32|
	36, 16|
	33, 15|
	33, 16|
	24, 36|
	24, 33|
	24, 15|
	24, 32|
	24, 16|
	24, 31|
	24, 17|
	32, 15|
	32, 16|
	32, 17|
	35, 33|
	35, 15|
	35, 32|
	35, 16|
	35, 31|
	35, 17|
	35, 18|
	31, 16|
	31, 17|
	31, 18|
	17, 18|
	34, 15|
	34, 32|
	34, 16|
	34, 31|
	34, 17|
	34, 18|
	19, 20|
	29, 23|
	29, 36|
	29, 33|
	29, 15|
	29, 24|
	29, 32|
	29, 16|
	21, 20|
	25, 18|
	25, 19|
	25, 20|
	25, 21|
	22, 18|
	22, 19|
	22, 20|
	22, 21|
	22, 25|
	22, 26|
	26, 20|
	26, 21|
	30, 23|
	30, 36|
	30, 33|
	30, 15|
	30, 24|
	30, 32|
	30, 16|
	30, 35|
	30, 31|
	30, 17|
	30, 29|
	30, 27|
	27, 23|
	27, 36|
	27, 33|
	27, 15|
	27, 24|
	27, 32|
	27, 16|
	27, 35|
	27, 31|
	27, 17|
	44, 4|
	44, 37|
	44, 40|
	44, 39|
	44, 42|
	44, 43|
	44, 41|];
DisjunctiveConstraints =  [|1, 3, 1, 25|
	2, 4, 2, 26|
	6, 5, 6, 7|
	7, 6, 7, 8|
	10, 9, 10, 11|
	28, 40, 28, 18|
	23, 16, 38, 23|
	24, 35, 24, 23|
	32, 31, 32, 33|
	16, 17, 16, 15|
	35, 34, 35, 24|
	35, 18, 40, 35|
	34, 40, 34, 18|
	19, 42, 19, 20|
	29, 16, 38, 29|
	29, 37, 29, 15|
	30, 2, 30, 24|
	30, 10, 30, 32|
	30, 17, 39, 30|
	27, 2, 27, 24|
	27, 28, 27, 29|
	27, 38, 27, 16|
	37, 40, 37, 38|
	40, 39, 40, 37|
	43, 41, 43, 42|];
SoftAtomicConstraints =  [|
2, 1|
4, 3|
5, 6|
6, 7|
7, 8|
8, 9|
9, 10|
10, 11|
12, 13|
16, 15|
17, 16|
19, 17|
20, 18|
21, 19|
24, 23|
35, 24|
26, 25|
28, 27|
27, 29|
31, 32|
32, 33|
22, 34|
34, 35|
25, 36|
40, 37|
37, 38|
42, 39|
39, 40|
43, 42|
41, 43|];
DirectSuccessors =  [19,
20,
21];
